% File represents an instance of a Composite Structure problem to be solved by a CP framework
% Created on 2025-03-26 10:41:35.562
T = 50;
n = 25;
m = 40;
edges = [(1, 2),
(6, 7),
(11, 12),
(16, 17),
(21, 22),
(2, 3),
(7, 8),
(12, 13),
(17, 18),
(22, 23),
(3, 4),
(8, 9),
(13, 14),
(18, 19),
(23, 24),
(4, 5),
(9, 10),
(14, 15),
(19, 20),
(24, 25),
(6, 1),
(11, 6),
(11, 16),
(16, 21),
(7, 2),
(12, 7),
(12, 17),
(17, 22),
(8, 3),
(13, 8),
(13, 18),
(18, 23),
(9, 4),
(14, 9),
(14, 19),
(19, 24),
(10, 5),
(15, 10),
(15, 20),
(20, 25)];
counts = [|6, 12, 6, 14,
|6, 10, 6, 10,
|4, 10, 4, 10,
|4, 10, 4, 6,
|4, 10, 4, 2,
|6, 12, 6, 20,
|6, 12, 6, 14,
|6, 10, 6, 12,
|6, 10, 6, 6,
|4, 10, 4, 4,
|8, 12, 8, 22,
|8, 12, 8, 16,
|6, 10, 6, 16,
|6, 10, 6, 10,
|6, 10, 6, 6,
|8, 8, 8, 20,
|8, 6, 8, 16,
|6, 6, 6, 16,
|6, 6, 6, 10,
|6, 6, 6, 4,
|6, 8, 6, 18,
|6, 4, 6, 16,
|6, 4, 6, 12,
|6, 4, 6, 8,
|6, 2, 6, 4|];
